39551.42,33.03,36.37
38150.62,34.24,37.71
37147.44,35.16,38.72
40535.75,32.22,35.49
39082.79,33.42,36.81
42466.83,30.76,33.87
37619.56,34.72,38.24
40741.46,32.06,35.31
36516.72,35.77,39.39
36906.61,35.39,38.98
41001.4,31.86,35.08
40372.89,32.35,35.63
41043.59,31.83,35.05
40613.16,32.16,35.42
42758.01,30.55,33.64
39745.81,32.86,36.19
38464.3,33.96,37.4
38414.15,34.0,37.45
39958.42,32.69,36.0
38963.88,33.52,36.92
